problems/csplib-prob006-decision/GolombRuler-models/01_noch_lvlPruned/O0/minion/model_1-09-0050-solution000001.solution
language Essence 1.3

letting Ticks be {0, 13, 16, 18, 30, 38, 39, 45, 49}
